experiment/zaligvinder/models/redos/small/instance650.smt2
;test regex ^(\$md5,rounds=[0-9]+\$|\$md5\$rounds=[0-9]+\$|\$md5\$)[a-z0-9\/.]{0,16}(\$|\$\$)[a-z0-9\/.]{22}$
(declare-const X String)
(assert (str.in_re X (re.++ (re.++ (str.to_re "") (re.++ (re.union (re.union (re.++ (re.++ (str.to_re "$") (re.++ (str.to_re "m") (re.++ (str.to_re "d") (str.to_re "5")))) (re.++ (str.to_re ",") (re.++ (str.to_re "r") (re.++ (str.to_re "o") (re.++ (str.to_re "u") (re.++ (str.to_re "n") (re.++ (str.to_re "d") (re.++ (str.to_re "s") (re.++ (str.to_re "=") (re.++ (re.+ (re.range "0" "9")) (str.to_re "$"))))))))))) (re.++ (str.to_re "$") (re.++ (str.to_re "m") (re.++ (str.to_re "d") (re.++ (str.to_re "5") (re.++ (str.to_re "$") (re.++ (str.to_re "r") (re.++ (str.to_re "o") (re.++ (str.to_re "u") (re.++ (str.to_re "n") (re.++ (str.to_re "d") (re.++ (str.to_re "s") (re.++ (str.to_re "=") (re.++ (re.+ (re.range "0" "9")) (str.to_re "$"))))))))))))))) (re.++ (str.to_re "$") (re.++ (str.to_re "m") (re.++ (str.to_re "d") (re.++ (str.to_re "5") (str.to_re "$")))))) (re.++ ((_ re.loop 0 16) (re.union (re.range "a" "z") (re.union (re.range "0" "9") (re.union (str.to_re "/") (str.to_re "."))))) (re.++ (re.union (str.to_re "$") (re.++ (str.to_re "$") (str.to_re "$"))) ((_ re.loop 22 22) (re.union (re.range "a" "z") (re.union (re.range "0" "9") (re.union (str.to_re "/") (str.to_re "."))))))))) (str.to_re ""))))
; sanitize danger characters:  < > ' " \ / &
(assert (not (str.in_re X (re.* (re.union (str.to_re "\u{3c}") (str.to_re "\u{3e}") (str.to_re "\u{27}") (str.to_re "\u{22}") (str.to_re "\u{5c}") (str.to_re "\u{2f}") (str.to_re "\u{26}"))))))
(assert (< 20 (str.len X)))
(check-sat)
(get-model)